letting n =  10
letting blocks =  [[1, 3], [1, 6], [1, 7], [1, 8], [2, 5], [2, 6], [2, 9], [2, 10], [3, 5], [3, 6], [3, 10], [4, 3], [4, 4], [4, 6], [4, 7], [4, 9], [5, 5], [5, 7], [5, 8], [5, 10], [6, 1], [6, 6], [6, 7], [6, 9], [6, 10], [7, 1], [7, 2], [7, 5], [8, 2], [8, 5], [8, 8], [8, 9], [9, 1], [9, 4], [9, 6], [10, 3], [10, 5], [10, 10]]
